19
1 0 35
2 0 40
2 1 3
3 0 31
3 1 38
3 2 34
4 0 27
4 1 8
4 2 18
4 3 6
5 0 38
5 1 22
5 2 30
5 3 4
5 4 36
6 0 21
6 1 16
6 2 2
6 3 11
6 4 3
6 5 31
7 0 22
7 1 22
7 2 35
7 3 12
7 4 13
7 5 4
7 6 14
8 0 33
8 1 34
8 2 18
8 3 7
8 4 2
8 5 13
8 6 20
8 7 35
9 0 35
9 1 23
9 2 6
9 3 6
9 4 28
9 5 39
9 6 40
9 7 33
9 8 25
10 0 19
10 1 7
10 2 19
10 3 8
10 4 26
10 5 25
10 6 32
10 7 41
10 8 21
10 9 32
11 0 4
11 1 18
11 2 21
11 3 1
11 4 21
11 5 21
11 6 9
11 7 17
11 8 29
11 9 12
11 10 39
12 0 32
12 1 9
12 2 16
12 3 18
12 4 19
12 5 39
12 6 32
12 7 37
12 8 4
12 9 1
12 10 31
12 11 23
13 0 23
13 1 9
13 2 25
13 3 40
13 4 30
13 5 36
13 6 25
13 7 13
13 8 24
13 9 36
13 10 18
13 11 4
13 12 3
14 0 27
14 1 28
14 2 33
14 3 30
14 4 7
14 5 25
14 6 39
14 7 27
14 8 28
14 9 1
14 10 4
14 11 26
14 12 31
14 13 35
15 0 3
15 1 27
15 2 17
15 3 38
15 4 10
15 5 23
15 6 24
15 7 8
15 8 27
15 9 1
15 10 31
15 11 4
15 12 30
15 13 11
15 14 23
16 0 35
16 1 3
16 2 19
16 3 10
16 4 10
16 5 14
16 6 17
16 7 26
16 8 21
16 9 37
16 10 39
16 11 40
16 12 8
16 13 23
16 14 19
16 15 24
17 0 18
17 1 41
17 2 15
17 3 20
17 4 8
17 5 11
17 6 36
17 7 7
17 8 37
17 9 36
17 10 21
17 11 14
17 12 28
17 13 1
17 14 8
17 15 7
17 16 29
18 0 5
18 1 5
18 2 25
18 3 16
18 4 28
18 5 10
18 6 23
18 7 38
18 8 7
18 9 21
18 10 1
18 11 40
18 12 20
18 13 5
18 14 28
18 15 16
18 16 2
18 17 4
